c 9th DIMACS Implementation Challenge: Shortest Paths
c http://www.dis.uniroma1.it/~challenge9
c TIGER/Line graph USA-road-d.NY
c
p sp 6 16
c graph contains 3 nodes and 16 arcs
c
a 1 2 803
a 2 1 803
a 3 2 158
a 2 3 158
a 3 4 774
a 4 3 774
a 4 5 1531
a 5 4 1531
a 2 5 1673
a 5 2 1673
a 2 4 1400
a 4 2 1400
a 1 6 100
a 6 1 100
a 3 6 591
a 6 3 591
